p cnf 74 550
8 16 26 35 43 51 0
2 28 37 45 52 61 0
3 47 71 0
6 41 49 73 0
20 50 0
15 25 34 58 0
-1 -9 2 0
-1 -11 3 0
-1 -12 4 0
-1 -13 5 0
-1 -14 0
-1 -15 7 0
-2 -17 1 0
-2 -18 4 0
-2 -19 5 0
-2 -20 0
-2 -21 7 0
-22 1 0
-23 4 0
-24 5 0
-25 7 0
-3 -27 1 0
-3 -28 2 0
-3 -30 4 0
-3 -31 5 0
-3 -32 6 0
-3 -33 0
-3 -34 7 0
-4 -36 1 0
-4 -37 2 0
-4 -39 3 0
-4 -40 5 0
-4 -41 6 0
-4 -42 7 0
-5 -44 1 0
-5 -45 2 0
-5 -47 3 0
-5 -48 4 0
-5 -49 6 0
-5 -50 0
-6 1 0
-6 -52 2 0
-6 -54 3 0
-6 -55 4 0
-6 -56 5 0
-6 -57 0
-6 -58 7 0
-7 -68 1 0
-7 -69 2 0
-7 -71 3 0
-7 -72 4 0
-7 5 0
-7 -73 6 0
-7 -74 0
-8 -2 9 0
-8 10 0
-8 -3 11 0
-8 -4 12 0
-8 -5 13 0
-8 -6 0
-8 -7 15 0
-9 -16 8 0
-9 10 0
-9 -18 12 0
-9 -19 13 0
-9 -20 14 0
-9 -21 15 0
-10 -23 12 0
-10 -24 13 0
-10 -25 15 0
-11 -26 8 0
-11 -28 9 0
-11 -29 10 0
-11 -30 12 0
-11 -31 13 0
-11 -32 0
-11 -33 14 0
-11 -34 15 0
-12 -35 8 0
-12 -37 9 0
-12 -38 10 0
-12 -39 11 0
-12 -40 13 0
-12 -41 0
-12 -42 15 0
-13 -43 8 0
-13 -45 9 0
-13 -46 10 0
-13 -47 11 0
-13 -48 12 0
-13 -49 0
-13 -50 14 0
-14 -59 8 0
-14 -61 9 0
-14 -62 10 0
-14 -63 11 0
-14 12 0
-14 -64 13 0
-14 -65 0
-14 -66 15 0
-15 -67 8 0
-15 -69 9 0
-15 -70 10 0
-15 -71 11 0
-15 -72 12 0
-15 13 0
-15 -73 0
-15 -74 14 0
-16 -1 17 0
-16 -3 0
-16 -4 18 0
-16 -5 19 0
-16 -6 0
-16 -7 21 0
-17 -8 16 0
-17 -11 0
-17 -12 18 0
-17 -13 19 0
-17 -14 20 0
-17 -15 21 0
-22 17 0
-23 18 0
-24 19 0
-25 21 0
-18 -35 16 0
-18 -36 17 0
-18 -39 0
-18 -40 19 0
-18 -41 0
-18 -42 21 0
-19 -43 16 0
-19 -44 17 0
-19 -47 0
-19 -48 18 0
-19 -49 0
-19 -50 20 0
-20 -59 16 0
-20 -60 17 0
-20 -63 0
-20 18 0
-20 -64 19 0
-20 -65 0
-20 -66 21 0
-21 -67 16 0
-21 -68 17 0
-21 -71 0
-21 -72 18 0
-21 19 0
-21 -73 0
-21 -74 20 0
-22 -8 0
-22 -9 0
-22 -11 0
-22 -12 23 0
-22 -13 24 0
-22 -14 0
-22 -15 25 0
-23 -35 0
-23 -36 22 0
-23 -37 0
-23 -39 0
-23 -40 24 0
-23 -41 0
-23 -42 25 0
-24 -43 0
-24 -44 22 0
-24 -45 0
-24 -47 0
-24 -48 23 0
-24 -49 0
-24 -50 0
-25 -67 0
-25 -68 22 0
-25 -69 0
-25 -71 0
-25 -72 23 0
-25 24 0
-25 -73 0
-25 -74 0
-26 -1 27 0
-26 -2 28 0
-26 29 0
-26 -4 30 0
-26 -5 31 0
-26 -6 32 0
-26 -7 34 0
-27 -8 26 0
-27 -9 28 0
-27 -10 29 0
-27 -12 30 0
-27 -13 31 0
-27 -14 33 0
-27 -15 34 0
-28 -16 26 0
-28 -17 27 0
-28 29 0
-28 -18 30 0
-28 -19 31 0
-28 -20 33 0
-28 -21 34 0
-29 -22 27 0
-29 -23 30 0
-29 -24 31 0
-29 -25 34 0
-30 -35 26 0
-30 -36 27 0
-30 -37 28 0
-30 -38 29 0
-30 -40 31 0
-30 -41 32 0
-30 -42 34 0
-31 -43 26 0
-31 -44 27 0
-31 -45 28 0
-31 -46 29 0
-31 -48 30 0
-31 -49 32 0
-31 -50 33 0
-32 -51 26 0
-32 27 0
-32 -52 28 0
-32 -53 29 0
-32 -55 30 0
-32 -56 31 0
-32 -57 33 0
-32 -58 34 0
-33 -59 26 0
-33 -60 27 0
-33 -61 28 0
-33 -62 29 0
-33 30 0
-33 -64 31 0
-33 -65 32 0
-33 -66 34 0
-34 -67 26 0
-34 -68 27 0
-34 -69 28 0
-34 -70 29 0
-34 -72 30 0
-34 31 0
-34 -73 32 0
-34 -74 33 0
-35 -1 36 0
-35 -2 37 0
-35 38 0
-35 -3 39 0
-35 -5 40 0
-35 -6 41 0
-35 -7 42 0
-36 -8 35 0
-36 -9 37 0
-36 -10 38 0
-36 -11 39 0
-36 -13 40 0
-36 -14 0
-36 -15 42 0
-37 -16 35 0
-37 -17 36 0
-37 38 0
-37 -19 40 0
-37 -20 0
-37 -21 42 0
-38 -22 36 0
-38 -24 40 0
-38 -25 42 0
-39 -26 35 0
-39 -27 36 0
-39 -28 37 0
-39 -29 38 0
-39 -31 40 0
-39 -32 41 0
-39 -33 0
-39 -34 42 0
-40 -43 35 0
-40 -44 36 0
-40 -45 37 0
-40 -46 38 0
-40 -47 39 0
-40 -49 41 0
-40 -50 0
-41 -51 35 0
-41 36 0
-41 -52 37 0
-41 -53 38 0
-41 -54 39 0
-41 -56 40 0
-41 -57 0
-41 -58 42 0
-42 -67 35 0
-42 -68 36 0
-42 -69 37 0
-42 -70 38 0
-42 -71 39 0
-42 40 0
-42 -73 41 0
-42 -74 0
-43 -1 44 0
-43 -2 45 0
-43 46 0
-43 -3 47 0
-43 -4 48 0
-43 -6 49 0
-43 -7 0
-44 -8 43 0
-44 -9 45 0
-44 -10 46 0
-44 -11 47 0
-44 -12 48 0
-44 -14 50 0
-44 -15 0
-45 -16 43 0
-45 -17 44 0
-45 46 0
-45 -18 48 0
-45 -20 50 0
-45 -21 0
-46 -22 44 0
-46 -23 48 0
-46 -25 0
-47 -26 43 0
-47 -27 44 0
-47 -28 45 0
-47 -29 46 0
-47 -30 48 0
-47 -32 49 0
-47 -33 50 0
-47 -34 0
-48 -35 43 0
-48 -36 44 0
-48 -37 45 0
-48 -38 46 0
-48 -39 47 0
-48 -41 49 0
-48 -42 0
-49 -51 43 0
-49 44 0
-49 -52 45 0
-49 -53 46 0
-49 -54 47 0
-49 -55 48 0
-49 -57 50 0
-49 -58 0
-50 -59 43 0
-50 -60 44 0
-50 -61 45 0
-50 -62 46 0
-50 -63 47 0
-50 48 0
-50 -65 49 0
-50 -66 0
-51 -2 52 0
-51 53 0
-51 -3 54 0
-51 -4 55 0
-51 -5 56 0
-51 -7 58 0
-8 51 0
-9 52 0
-10 53 0
-11 54 0
-12 55 0
-13 56 0
-14 57 0
-15 58 0
-52 -16 51 0
-52 53 0
-52 -18 55 0
-52 -19 56 0
-52 -20 57 0
-52 -21 58 0
-53 -23 55 0
-53 -24 56 0
-53 -25 58 0
-54 -26 51 0
-54 -28 52 0
-54 -29 53 0
-54 -30 55 0
-54 -31 56 0
-54 -33 57 0
-54 -34 58 0
-55 -35 51 0
-55 -37 52 0
-55 -38 53 0
-55 -39 54 0
-55 -40 56 0
-55 -42 58 0
-56 -43 51 0
-56 -45 52 0
-56 -46 53 0
-56 -47 54 0
-56 -48 55 0
-56 -50 57 0
-57 -59 51 0
-57 -61 52 0
-57 -62 53 0
-57 -63 54 0
-57 55 0
-57 -64 56 0
-57 -66 58 0
-58 -67 51 0
-58 -69 52 0
-58 -70 53 0
-58 -71 54 0
-58 -72 55 0
-58 56 0
-58 -74 57 0
-59 -1 60 0
-59 -2 61 0
-59 62 0
-59 -3 63 0
-59 -5 64 0
-59 -6 65 0
-59 -7 66 0
-60 -8 59 0
-60 -9 61 0
-60 -10 62 0
-60 -11 63 0
-60 -13 64 0
-60 -15 66 0
-61 -16 59 0
-61 -17 60 0
-61 62 0
-61 -19 64 0
-61 -21 66 0
-62 -22 60 0
-62 -24 64 0
-62 -25 66 0
-63 -26 59 0
-63 -27 60 0
-63 -28 61 0
-63 -29 62 0
-63 -31 64 0
-63 -32 65 0
-63 -34 66 0
-35 59 0
-36 60 0
-37 61 0
-38 62 0
-39 63 0
-40 64 0
-41 65 0
-42 66 0
-64 -43 59 0
-64 -44 60 0
-64 -45 61 0
-64 -46 62 0
-64 -47 63 0
-64 -49 65 0
-65 -51 59 0
-65 60 0
-65 -52 61 0
-65 -53 62 0
-65 -54 63 0
-65 -56 64 0
-65 -58 66 0
-66 -67 59 0
-66 -68 60 0
-66 -69 61 0
-66 -70 62 0
-66 -71 63 0
-66 64 0
-66 -73 65 0
-67 -1 68 0
-67 -2 69 0
-67 70 0
-67 -3 71 0
-67 -4 72 0
-67 -6 73 0
-68 -8 67 0
-68 -9 69 0
-68 -10 70 0
-68 -11 71 0
-68 -12 72 0
-68 -14 74 0
-69 -16 67 0
-69 -17 68 0
-69 70 0
-69 -18 72 0
-69 -20 74 0
-70 -22 68 0
-70 -23 72 0
-71 -26 67 0
-71 -27 68 0
-71 -28 69 0
-71 -29 70 0
-71 -30 72 0
-71 -32 73 0
-71 -33 74 0
-72 -35 67 0
-72 -36 68 0
-72 -37 69 0
-72 -38 70 0
-72 -39 71 0
-72 -41 73 0
-43 67 0
-44 68 0
-45 69 0
-46 70 0
-47 71 0
-48 72 0
-49 73 0
-50 74 0
-73 -51 67 0
-73 68 0
-73 -52 69 0
-73 -53 70 0
-73 -54 71 0
-73 -55 72 0
-73 -57 74 0
-74 -59 67 0
-74 -60 68 0
-74 -61 69 0
-74 -62 70 0
-74 -63 71 0
-74 72 0
-74 -65 73 0
-1 -8 0
-2 -16 0
-3 -26 0
-4 -35 0
-5 -43 0
-6 -51 0
-7 -67 0
-9 -17 0
-10 -22 0
-11 -27 0
-12 -36 0
-13 -44 0
-14 -60 0
-15 -68 0
-18 -37 0
-19 -45 0
-20 -61 0
-21 -69 0
-23 -38 0
-24 -46 0
-25 -70 0
-30 -39 0
-31 -47 0
-32 -54 0
-33 -63 0
-34 -71 0
-40 -48 0
-41 -55 0
-42 -72 0
-49 -56 0
-50 -64 0
-57 -65 0
-58 -73 0
-66 -74 0
